; PUSH cw_1 SWAP2 DUP3 SWAP2 LT => LT PUSH cw_1 DUP1 SWAP2
(set-option :produce-proofs true)
; 
(set-info :status unknown)
(declare-fun storage_t ((_ BitVec 256) (_ BitVec 256) (_ BitVec 256) Int (_ BitVec 256)) (_ BitVec 256))
(declare-fun w_1 () (_ BitVec 256))
(declare-fun storage_s ((_ BitVec 256) (_ BitVec 256) (_ BitVec 256) Int (_ BitVec 256)) (_ BitVec 256))
(declare-fun exc_halt_t (Int) Bool)
(declare-fun exc_halt_s (Int) Bool)
(declare-fun stack_t ((_ BitVec 256) (_ BitVec 256) (_ BitVec 256) Int (_ BitVec 6)) (_ BitVec 256))
(declare-fun stack_s ((_ BitVec 256) (_ BitVec 256) (_ BitVec 256) Int (_ BitVec 6)) (_ BitVec 256))
(declare-fun sc_t (Int) (_ BitVec 6))
(declare-fun sc_s (Int) (_ BitVec 6))
(declare-fun used_gas_t ((_ BitVec 256) (_ BitVec 256) (_ BitVec 256) Int) Int)
(declare-fun used_gas_s ((_ BitVec 256) (_ BitVec 256) (_ BitVec 256) Int) Int)
(assert
 (exists ((x_0 (_ BitVec 256)) (x_1 (_ BitVec 256)) )(let (($x10754 (forall ((w (_ BitVec 256)) )(let ((?x1571 (storage_t x_0 x_1 w_1 4 w)))
 (let ((?x4700 (storage_s x_0 x_1 w_1 5 w)))
 (= ?x4700 ?x1571))))
 ))
 (let (($x7854 (exc_halt_t 4)))
 (let (($x11317 (exc_halt_s 5)))
 (let (($x6710 (= $x11317 $x7854)))
 (let (($x1272 (forall ((n (_ BitVec 6)) )(let ((?x9318 (stack_t x_0 x_1 w_1 4 n)))
 (let ((?x6888 (stack_s x_0 x_1 w_1 5 n)))
 (let (($x8416 (= ?x6888 ?x9318)))
 (let ((?x4818 (sc_t 4)))
 (let (($x8053 (bvsle ?x4818 n)))
 (or $x8053 $x8416)))))))
 ))
 (let ((?x4818 (sc_t 4)))
 (let ((?x4319 (sc_s 5)))
 (let (($x1673 (= ?x4319 ?x4818)))
 (let ((?x4028 (used_gas_t x_0 x_1 w_1 0)))
 (let ((?x7838 (used_gas_s x_0 x_1 w_1 0)))
 (let (($x10280 (= ?x7838 ?x4028)))
 (let (($x9579 (forall ((w (_ BitVec 256)) )(let ((?x11407 (storage_t x_0 x_1 w_1 0 w)))
 (let ((?x3776 (storage_s x_0 x_1 w_1 0 w)))
 (= ?x3776 ?x11407))))
 ))
 (let (($x56 (exc_halt_t 0)))
 (let (($x57 (exc_halt_s 0)))
 (let (($x58 (= $x57 $x56)))
 (let (($x6683 (forall ((n (_ BitVec 6)) )(let ((?x10006 (stack_t x_0 x_1 w_1 0 n)))
 (let ((?x9037 (stack_s x_0 x_1 w_1 0 n)))
 (let (($x7334 (= ?x9037 ?x10006)))
 (let ((?x63 (sc_t 0)))
 (let (($x1948 (bvsle ?x63 n)))
 (or $x1948 $x7334)))))))
 ))
 (let ((?x63 (sc_t 0)))
 (let ((?x72 (sc_s 0)))
 (let (($x73 (= ?x72 ?x63)))
 (let (($x9998 (= $x7854 (or (exc_halt_t 3) (not (bvsle (_ bv0 6) (bvadd (_ bv61 6) (sc_t 3))))))))
 (let (($x8243 (forall ((w (_ BitVec 256)) )(let ((?x7916 (storage_t x_0 x_1 w_1 3 w)))
 (let ((?x1571 (storage_t x_0 x_1 w_1 4 w)))
 (= ?x1571 ?x7916))))
 ))
 (let (($x10308 (forall ((n (_ BitVec 6)) )(let ((?x6000 (stack_t x_0 x_1 w_1 3 n)))
 (let ((?x9318 (stack_t x_0 x_1 w_1 4 n)))
 (or (bvsle (bvadd (_ bv61 6) (sc_t 3)) n) (= ?x9318 ?x6000)))))
 ))
 (let ((?x6438 (sc_t 3)))
 (let (($x8167 (= ?x4818 ?x6438)))
 (let (($x4610 (= (used_gas_t x_0 x_1 w_1 4) (+ 3 (used_gas_t x_0 x_1 w_1 3)))))
 (let (($x1215 (= (stack_t x_0 x_1 w_1 4 (bvadd (_ bv62 6) ?x4818)) (stack_t x_0 x_1 w_1 3 (bvadd (_ bv62 6) ?x6438)))))
 (let ((?x5320 (bvadd (_ bv63 6) ?x6438)))
 (let ((?x9640 (stack_t x_0 x_1 w_1 3 ?x5320)))
 (let (($x11257 (= (stack_t x_0 x_1 w_1 4 (bvadd (_ bv63 6) ?x4818)) (stack_t x_0 x_1 w_1 3 (bvadd (_ bv61 6) ?x6438)))))
 (let (($x9554 (not (= ((_ extract 6 6) (bvadd (_ bv1 7) (concat (_ bv0 1) (sc_t 2)))) (_ bv0 1)))))
 (let (($x5571 (not (bvsle (_ bv0 6) (bvadd (_ bv63 6) (sc_t 2))))))
 (let (($x2163 (exc_halt_t 2)))
 (let (($x6783 (exc_halt_t 3)))
 (let (($x1723 (forall ((w (_ BitVec 256)) )(let ((?x229 (storage_t x_0 x_1 w_1 2 w)))
 (let ((?x7916 (storage_t x_0 x_1 w_1 3 w)))
 (= ?x7916 ?x229))))
 ))
 (let (($x8118 (forall ((n (_ BitVec 6)) )(let ((?x4937 (stack_t x_0 x_1 w_1 2 n)))
 (let ((?x6000 (stack_t x_0 x_1 w_1 3 n)))
 (let ((?x2714 (sc_t 2)))
 (let ((?x9660 (bvadd (_ bv63 6) ?x2714)))
 (let (($x3166 (bvsle ?x9660 n)))
 (or $x3166 (= ?x6000 ?x4937))))))))
 ))
 (let (($x10399 (= ?x6438 (bvadd (_ bv1 6) (sc_t 2)))))
 (let ((?x11473 (used_gas_t x_0 x_1 w_1 3)))
 (let ((?x2714 (sc_t 2)))
 (let ((?x9660 (bvadd (_ bv63 6) ?x2714)))
 (let ((?x6441 (stack_t x_0 x_1 w_1 2 ?x9660)))
 (let (($x2331 (not (= ((_ extract 6 6) (bvadd (_ bv1 7) (concat (_ bv0 1) (sc_t 1)))) (_ bv0 1)))))
 (let (($x8377 (exc_halt_t 1)))
 (let (($x3076 (= $x2163 (or $x8377 $x2331))))
 (let (($x894 (forall ((w (_ BitVec 256)) )(let ((?x2500 (storage_t x_0 x_1 w_1 1 w)))
 (let ((?x229 (storage_t x_0 x_1 w_1 2 w)))
 (= ?x229 ?x2500))))
 ))
 (let (($x8951 (forall ((n (_ BitVec 6)) )(let ((?x316 (stack_t x_0 x_1 w_1 1 n)))
 (let ((?x4937 (stack_t x_0 x_1 w_1 2 n)))
 (let ((?x7154 (sc_t 1)))
 (let (($x2342 (bvsle ?x7154 n)))
 (or $x2342 (= ?x4937 ?x316)))))))
 ))
 (let (($x8154 (= ?x2714 (bvadd (_ bv1 6) (sc_t 1)))))
 (let ((?x6449 (used_gas_t x_0 x_1 w_1 2)))
 (let (($x6260 (forall ((w (_ BitVec 256)) )(let ((?x11407 (storage_t x_0 x_1 w_1 0 w)))
 (let ((?x2500 (storage_t x_0 x_1 w_1 1 w)))
 (= ?x2500 ?x11407))))
 ))
 (let (($x9790 (forall ((n (_ BitVec 6)) )(let ((?x10006 (stack_t x_0 x_1 w_1 0 n)))
 (let ((?x316 (stack_t x_0 x_1 w_1 1 n)))
 (or (bvsle (bvadd (_ bv62 6) (sc_t 0)) n) (= ?x316 ?x10006)))))
 ))
 (let (($x3427 (bvule (stack_t x_0 x_1 w_1 0 (bvadd (_ bv62 6) ?x63)) (stack_t x_0 x_1 w_1 0 (bvadd (_ bv63 6) ?x63)))))
 (let (($x11226 (= (stack_t x_0 x_1 w_1 1 (bvadd (_ bv63 6) (sc_t 1))) (ite $x3427 (_ bv0 256) (_ bv1 256)))))
 (let (($x3821 (= $x11317 (or (exc_halt_s 4) (not (bvsle (_ bv0 6) (bvadd (_ bv62 6) (sc_s 4))))))))
 (let (($x6187 (forall ((w (_ BitVec 256)) )(let ((?x9831 (storage_s x_0 x_1 w_1 4 w)))
 (let ((?x4700 (storage_s x_0 x_1 w_1 5 w)))
 (= ?x4700 ?x9831))))
 ))
 (let (($x6182 (forall ((n (_ BitVec 6)) )(let ((?x4305 (sc_s 4)))
 (let ((?x2417 (bvadd (_ bv62 6) ?x4305)))
 (let (($x11349 (bvsle ?x2417 n)))
 (let ((?x3800 (stack_s x_0 x_1 w_1 4 n)))
 (let ((?x6888 (stack_s x_0 x_1 w_1 5 n)))
 (or (= ?x6888 ?x3800) $x11349)))))))
 ))
 (let (($x825 (= (used_gas_s x_0 x_1 w_1 5) (+ 3 (used_gas_s x_0 x_1 w_1 4)))))
 (let ((?x4305 (sc_s 4)))
 (let ((?x6098 (bvadd (_ bv63 6) ?x4305)))
 (let ((?x8321 (stack_s x_0 x_1 w_1 4 ?x6098)))
 (let ((?x2417 (bvadd (_ bv62 6) ?x4305)))
 (let ((?x2197 (stack_s x_0 x_1 w_1 4 ?x2417)))
 (let (($x4154 (= (stack_s x_0 x_1 w_1 5 (bvadd (_ bv63 6) ?x4319)) (ite (bvule ?x2197 ?x8321) (_ bv0 256) (_ bv1 256)))))
 (let (($x7172 (exc_halt_s 4)))
 (let (($x1666 (= $x7172 (or (exc_halt_s 3) (not (bvsle (_ bv0 6) (bvadd (_ bv61 6) (sc_s 3))))))))
 (let (($x10098 (forall ((w (_ BitVec 256)) )(let ((?x3399 (storage_s x_0 x_1 w_1 3 w)))
 (let ((?x9831 (storage_s x_0 x_1 w_1 4 w)))
 (= ?x9831 ?x3399))))
 ))
 (let (($x5327 (forall ((n (_ BitVec 6)) )(let ((?x5635 (stack_s x_0 x_1 w_1 3 n)))
 (let ((?x3800 (stack_s x_0 x_1 w_1 4 n)))
 (or (= ?x3800 ?x5635) (bvsle (bvadd (_ bv61 6) (sc_s 3)) n)))))
 ))
 (let ((?x275 (sc_s 3)))
 (let (($x1480 (= ?x4305 ?x275)))
 (let ((?x7860 (used_gas_s x_0 x_1 w_1 4)))
 (let ((?x6630 (bvadd (_ bv63 6) ?x275)))
 (let ((?x346 (stack_s x_0 x_1 w_1 3 ?x6630)))
 (let (($x11463 (not (= ((_ extract 6 6) (bvadd (_ bv1 7) (concat (_ bv0 1) (sc_s 2)))) (_ bv0 1)))))
 (let (($x247 (exc_halt_s 2)))
 (let (($x292 (exc_halt_s 3)))
 (let (($x7573 (forall ((w (_ BitVec 256)) )(let ((?x11124 (storage_s x_0 x_1 w_1 2 w)))
 (let ((?x3399 (storage_s x_0 x_1 w_1 3 w)))
 (= ?x3399 ?x11124))))
 ))
 (let (($x11526 (forall ((n (_ BitVec 6)) )(let ((?x5349 (stack_s x_0 x_1 w_1 2 n)))
 (let ((?x5635 (stack_s x_0 x_1 w_1 3 n)))
 (or (bvsle (bvadd (_ bv61 6) (sc_s 2)) n) (= ?x5635 ?x5349)))))
 ))
 (let (($x5593 (= ?x275 (bvadd (_ bv1 6) (sc_s 2)))))
 (let ((?x2934 (used_gas_s x_0 x_1 w_1 3)))
 (let ((?x218 (sc_s 2)))
 (let ((?x6867 (bvadd (_ bv63 6) ?x218)))
 (let ((?x10148 (stack_s x_0 x_1 w_1 2 ?x6867)))
 (let ((?x1112 (bvadd (_ bv62 6) ?x218)))
 (let ((?x5748 (stack_s x_0 x_1 w_1 2 ?x1112)))
 (let ((?x6417 (bvadd (_ bv61 6) ?x218)))
 (let ((?x4876 (stack_s x_0 x_1 w_1 2 ?x6417)))
 (let (($x8227 (= $x247 (or (exc_halt_s 1) (not (bvsle (_ bv0 6) (bvadd (_ bv61 6) (sc_s 1))))))))
 (let (($x2796 (forall ((w (_ BitVec 256)) )(let ((?x4413 (storage_s x_0 x_1 w_1 1 w)))
 (let ((?x11124 (storage_s x_0 x_1 w_1 2 w)))
 (= ?x11124 ?x4413))))
 ))
 (let (($x10312 (forall ((n (_ BitVec 6)) )(let ((?x9331 (stack_s x_0 x_1 w_1 1 n)))
 (let ((?x5349 (stack_s x_0 x_1 w_1 2 n)))
 (or (bvsle (bvadd (_ bv61 6) (sc_s 1)) n) (= ?x5349 ?x9331)))))
 ))
 (let ((?x154 (sc_s 1)))
 (let (($x10727 (= ?x218 ?x154)))
 (let ((?x6983 (used_gas_s x_0 x_1 w_1 2)))
 (let (($x189 (exc_halt_s 1)))
 (let (($x2601 (= $x189 (or $x57 (not (= ((_ extract 6 6) (bvadd (_ bv1 7) (concat (_ bv0 1) ?x72))) (_ bv0 1)))))))
 (let (($x5068 (forall ((w (_ BitVec 256)) )(let ((?x3776 (storage_s x_0 x_1 w_1 0 w)))
 (let ((?x4413 (storage_s x_0 x_1 w_1 1 w)))
 (= ?x4413 ?x3776))))
 ))
 (let (($x5739 (forall ((n (_ BitVec 6)) )(let ((?x72 (sc_s 0)))
 (let (($x6679 (bvsle ?x72 n)))
 (let ((?x9037 (stack_s x_0 x_1 w_1 0 n)))
 (let ((?x9331 (stack_s x_0 x_1 w_1 1 n)))
 (or (= ?x9331 ?x9037) $x6679))))))
 ))
 (let (($x5696 (= ?x154 (bvadd (_ bv1 6) ?x72))))
 (let (($x7387 (forall ((w (_ BitVec 256)) )(let ((?x3776 (storage_s x_0 x_1 w_1 0 w)))
 (= ?x3776 (_ bv0 256))))
 ))
 (let (($x4293 (= ?x7838 0)))
 (let (($x7631 (not $x57)))
 (let (($x1233 (= (stack_s x_0 x_1 w_1 0 (_ bv1 6)) x_1)))
 (let (($x7627 (= (stack_s x_0 x_1 w_1 0 (_ bv0 6)) x_0)))
 (let (($x11128 (= ?x72 (_ bv2 6))))
 (and $x11128 $x7627 $x1233 $x7631 $x4293 $x7387 (= (stack_s x_0 x_1 w_1 1 ?x72) w_1) (= (used_gas_s x_0 x_1 w_1 1) (+ 3 ?x7838)) $x5696 $x5739 $x5068 $x2601 (= ?x10148 (stack_s x_0 x_1 w_1 1 (bvadd (_ bv61 6) ?x154))) (= ?x4876 (stack_s x_0 x_1 w_1 1 (bvadd (_ bv63 6) ?x154))) (= ?x5748 (stack_s x_0 x_1 w_1 1 (bvadd (_ bv62 6) ?x154))) (= ?x6983 (+ 3 (used_gas_s x_0 x_1 w_1 1))) $x10727 $x10312 $x2796 $x8227 (= ?x346 ?x4876) (= (stack_s x_0 x_1 w_1 3 ?x6417) ?x4876) (= (stack_s x_0 x_1 w_1 3 ?x1112) ?x5748) (= (stack_s x_0 x_1 w_1 3 ?x6867) ?x10148) (= ?x2934 (+ 3 ?x6983)) $x5593 $x11526 $x7573 (= $x292 (or $x247 (not (bvsle (_ bv0 6) ?x6417)) $x11463)) (= ?x8321 (stack_s x_0 x_1 w_1 3 (bvadd (_ bv61 6) ?x275))) (= (stack_s x_0 x_1 w_1 4 (bvadd (_ bv61 6) ?x4305)) ?x346) (= ?x2197 (stack_s x_0 x_1 w_1 3 (bvadd (_ bv62 6) ?x275))) (= ?x7860 (+ 3 ?x2934)) $x1480 $x5327 $x10098 $x1666 $x4154 $x825 (= ?x4319 ?x6098) $x6182 $x6187 $x3821 $x11226 (= (used_gas_t x_0 x_1 w_1 1) (+ 3 ?x4028)) (= (sc_t 1) (bvadd (_ bv63 6) ?x63)) $x9790 $x6260 (= $x8377 (or $x56 (not (bvsle (_ bv0 6) (bvadd (_ bv62 6) ?x63))))) (= (stack_t x_0 x_1 w_1 2 (sc_t 1)) w_1) (= ?x6449 (+ 3 (used_gas_t x_0 x_1 w_1 1))) $x8154 $x8951 $x894 $x3076 (= ?x9640 ?x6441) (= (stack_t x_0 x_1 w_1 3 ?x9660) ?x6441) (= ?x11473 (+ 3 ?x6449)) $x10399 $x8118 $x1723 (= $x6783 (or $x2163 $x5571 $x9554)) $x11257 (= (stack_t x_0 x_1 w_1 4 (bvadd (_ bv61 6) ?x4818)) ?x9640) $x1215 $x4610 $x8167 $x10308 $x8243 $x9998 $x73 $x6683 $x58 $x9579 $x10280 (not (and $x1673 $x1272 $x6710 $x10754)))))))))))))))))))))))))))))))))))))))))))))))))))))))))))))))))))))))))))))))))))))))))))))))))))))))))
 )
(check-sat)
(get-proof)
